solution status: optimal solution found
objective value:                                    0
bank.waste_out_hole_y                               3 	(obj:0)
bank.waste_out_hole_z                              16 	(obj:0)
$_5__1_z                                           18 	(obj:0)
bank.lysis_buffer_out_hole_y                        1 	(obj:0)
bank.lysis_buffer_out_hole_z                       18 	(obj:0)
bank.collect_hole_y                                 4 	(obj:0)
bank.collect_hole_z                                16 	(obj:0)
bank.waste_ctrl_hole_y                              5 	(obj:0)
bank.waste_ctrl_hole_z                             16 	(obj:0)
$_3__1_y                                           10 	(obj:0)
$_3__1_z                                           25 	(obj:0)
bank.collect_flush_hole_y                           2 	(obj:0)
bank.collect_flush_hole_z                          18 	(obj:0)
bank.collect_ctrl_hole_y                            6 	(obj:0)
bank.collect_ctrl_hole_z                           16 	(obj:0)
bank.waste_flush_hole_y                             2 	(obj:0)
bank.waste_flush_hole_z                            16 	(obj:0)
bank.lysis_out_flush_hole_y                        -1 	(obj:0)
bank.lysis_out_flush_hole_z                        18 	(obj:0)
bank.lysis_out_ctrl_hole_y                          1 	(obj:0)
bank.lysis_out_ctrl_hole_z                         16 	(obj:0)
